; benchmark generated from python API
(set-info :status unknown)
(declare-datatypes ((RealState 0)) (((RMk1 (rval1 Real)) (RMk2 (rval2 Real)))))
 (assert
 (exists ((|v11:0_st| RealState) (val!5116 Real) )(exists ((|v10:1_st| RealState) (val!5117 Real) )(exists ((|v9:2_st| RealState) (val!5118 Real) )(exists ((|v8:3_st| RealState) (val!5119 Real) )(forall ((|v7:4| Real) )(forall ((|v6:5| Real) )(forall ((|v5:6| Real) )(forall ((|v4:7| Real) )(exists ((|v3:8_st| RealState) (val!5120 Real) )(exists ((|v2:9_st| RealState) (val!5121 Real) )(exists ((|v1:10_st| RealState) (val!5122 Real) )(exists ((|v0:11_st| RealState) (val!5123 Real) )(let ((?x2072 (- 14.0)))
 (let ((?x721 (rval2 |v0:11_st|)))
 (let ((?x3148 (* 6.0 ?x721)))
 (let ((?x2397 (rval2 |v3:8_st|)))
 (let ((?x2825 (* 13.0 ?x2397)))
 (let (($x720 (<= (+ (+ (+ (* (- 17.0) |v5:6|) (* 4.0 (rval2 |v11:0_st|))) ?x2825) ?x3148) ?x2072)))
 (let ((?x2334 (* 15.0 |v6:5|)))
 (let ((?x2250 (rval2 |v10:1_st|)))
 (let ((?x266 (* 19.0 ?x2250)))
 (let ((?x2258 (+ (+ (* (- 10.0) (rval2 |v8:3_st|)) (* (- 7.0) (rval2 |v11:0_st|))) ?x266)))
 (let ((?x1415 (- 15.0)))
 (let ((?x532 (+ (+ (+ (* 3.0 |v7:4|) (* (- 16.0) |v7:4|)) (* 2.0 (rval2 |v8:3_st|))) (* 14.0 |v6:5|))))
 (let ((?x2373 (* 0.0 |v6:5|)))
 (let ((?x2672 (+ (+ (+ (* ?x1415 ?x2397) (* 0.0 (rval2 |v11:0_st|))) (* (- 5.0) |v5:6|)) ?x2373)))
 (let (($x1522 (and (or (<= ?x2672 3.0) (<= ?x532 ?x1415)) (and (<= (+ ?x2258 ?x2334) 5.0) $x720))))
 (let ((?x3138 (rval2 |v1:10_st|)))
 (let ((?x3019 (* 18.0 ?x3138)))
 (let ((?x1484 (+ (+ (+ (* 2.0 (rval2 |v9:2_st|)) (* (- 16.0) |v6:5|)) (* 19.0 ?x721)) ?x3019)))
 (let ((?x1204 (* ?x1415 |v7:4|)))
 (let ((?x366 (+ (+ (+ (* 15.0 ?x3138) (* 3.0 |v5:6|)) (* (- 19.0) (rval2 |v11:0_st|))) ?x1204)))
 (let ((?x1319 (- 13.0)))
 (let ((?x2557 (* 14.0 |v7:4|)))
 (let ((?x220 (rval2 |v11:0_st|)))
 (let ((?x1477 (- 5.0)))
 (let ((?x286 (* ?x1477 ?x220)))
 (let ((?x3071 (rval2 |v8:3_st|)))
 (let ((?x773 (* 6.0 ?x3071)))
 (let ((?x3011 (* 19.0 |v7:4|)))
 (let ((?x3441 (+ (+ (+ (* 0.0 (rval2 |v9:2_st|)) (* 10.0 (rval2 |v2:9_st|))) ?x3011) ?x773)))
 (let (($x1887 (and (<= ?x3441 1.0) (<= (+ (+ (+ (* (- 8.0) (rval2 |v2:9_st|)) ?x3138) ?x286) ?x2557) ?x1319))))
 (let ((?x273 (rval2 |v2:9_st|)))
 (let ((?x2973 (* 8.0 ?x273)))
 (let (($x2502 (<= (+ (+ (+ (* (- 20.0) |v6:5|) (* 12.0 ?x2397)) (* ?x1319 ?x3071)) ?x2973) 13.0)))
 (let ((?x961 (- 2.0)))
 (let ((?x686 (+ (+ (+ (* 20.0 ?x220) (* 11.0 |v5:6|)) (* 6.0 ?x3138)) (* 20.0 ?x3138))))
 (let ((?x1752 (+ (+ (+ (* 3.0 ?x2250) (* 20.0 ?x2397)) (* (- 8.0) ?x721)) (* (- 18.0) ?x721))))
 (let ((?x2500 (+ (+ (* (- 17.0) (rval2 |v9:2_st|)) (* 5.0 ?x721)) (* (- 19.0) (rval2 |v9:2_st|)))))
 (let (($x1875 (and (and (<= (+ ?x2500 (* (- 6.0) ?x2397)) 12.0) (<= ?x1752 3.0)) (and (<= ?x686 ?x961) $x2502))))
 (let ((?x2974 (* 2.0 |v4:7|)))
 (let ((?x3321 (+ (+ (+ (* 19.0 ?x721) (* (- 7.0) |v5:6|)) (* (- 20.0) ?x2397)) ?x2974)))
 (let ((?x2997 (+ (+ (+ (* 5.0 ?x721) (* (- 12.0) ?x273)) (* ?x2072 ?x721)) (* 18.0 ?x721))))
 (let ((?x704 (* ?x1477 |v7:4|)))
 (let (($x2923 (<= (+ (+ (+ (* (- 16.0) ?x3071) (* (- 3.0) ?x721)) |v4:7|) ?x704) 1.0)))
 (let ((?x295 (* 5.0 ?x3071)))
 (let ((?x1874 (+ (+ (+ (* 4.0 |v4:7|) (* (- 18.0) ?x2250)) (* (- 17.0) ?x220)) ?x295)))
 (let (($x2620 (and (and (<= ?x1874 ?x1415) $x2923) (and (<= ?x2997 4.0) (<= ?x3321 ?x1415)))))
 (let (($x1116 (and (and $x2620 $x1875) (and (and $x1887 (and (<= ?x366 7.0) (<= ?x1484 16.0))) $x1522))))
 (let ((?x1616 (+ (+ (+ (* 13.0 ?x273) (* (- 12.0) ?x721)) (* (- 10.0) ?x721)) (* (- 10.0) ?x220))))
 (let ((?x3147 (rval2 |v9:2_st|)))
 (let ((?x3069 (* 13.0 ?x3147)))
 (let (($x1088 (<= (+ (+ (+ (* 13.0 |v7:4|) (* 5.0 ?x3138)) (* 15.0 ?x721)) ?x3069) ?x1415)))
 (let ((?x2529 (+ (+ (+ (* (- 11.0) ?x3138) (* ?x1477 ?x273)) (* ?x1415 ?x273)) (* 14.0 ?x721))))
 (let ((?x2503 (- 3.0)))
 (let ((?x927 (* ?x2503 ?x2250)))
 (let (($x1364 (<= (+ (+ (+ (* ?x961 |v5:6|) (* (- 18.0) ?x3071)) (* 2.0 ?x3071)) ?x927) ?x1415)))
 (let ((?x1633 (- 7.0)))
 (let ((?x2837 (* ?x1633 |v5:6|)))
 (let ((?x449 (+ (+ (+ (* 6.0 |v6:5|) (* 3.0 |v7:4|)) (* (- 12.0) ?x3071)) ?x2837)))
 (let ((?x1642 (- 18.0)))
 (let ((?x3099 (* 14.0 ?x273)))
 (let (($x2596 (<= (+ (+ (+ (* ?x2503 ?x273) (* ?x2072 ?x3147)) (* 6.0 ?x3147)) ?x3099) ?x1642)))
 (let ((?x616 (+ (+ (+ (* (- 10.0) ?x721) (* 9.0 ?x3147)) (* (- 4.0) ?x3071)) (* (- 6.0) ?x2250))))
 (let ((?x1937 (+ (+ (+ (* (- 12.0) |v7:4|) (* 17.0 ?x2250)) (* (- 11.0) ?x273)) (* 17.0 ?x3071))))
 (let (($x3224 (and (and (<= ?x1937 3.0) (<= ?x616 12.0)) (and $x2596 (<= ?x449 9.0)))))
 (let (($x2828 (and $x3224 (and (and $x1364 (<= ?x2529 ?x2072)) (and $x1088 (<= ?x1616 2.0))))))
 (let ((?x354 (* 7.0 ?x3071)))
 (let (($x2385 (<= (+ (+ (+ (* 15.0 ?x220) (* 11.0 ?x2250)) (* 5.0 ?x3138)) ?x354) 13.0)))
 (let ((?x1211 (* 11.0 |v4:7|)))
 (let (($x2795 (<= (+ (+ (+ (* (- 11.0) ?x721) (* ?x1642 |v5:6|)) (* 3.0 |v7:4|)) ?x1211) 3.0)))
 (let ((?x1464 (* 5.0 ?x2250)))
 (let (($x1719 (<= (+ (+ (+ (* 0.0 ?x273) ?x3071) (* (- 10.0) ?x3147)) ?x1464) 12.0)))
 (let (($x3182 (<= (+ (+ (+ (* ?x1319 ?x3071) ?x3099) (* ?x1642 ?x3138)) (* 10.0 ?x3071)) 13.0)))
 (let ((?x3044 (- 20.0)))
 (let ((?x909 (+ (+ (+ ?x2973 (* (- 16.0) ?x3071)) (* ?x1477 ?x2250)) (* (- 4.0) ?x3147))))
 (let ((?x3348 (* 15.0 |v7:4|)))
 (let ((?x77 (+ (+ (+ (* 10.0 |v4:7|) (* (- 9.0) ?x2397)) (* (- 8.0) ?x273)) ?x3348)))
 (let (($x3292 (<= (+ (+ (+ (* (- 11.0) |v5:6|) (* ?x3044 |v6:5|)) (* 14.0 ?x2397)) ?x286) 6.0)))
 (let ((?x1968 (+ (+ (+ (* 16.0 ?x3147) (* 18.0 ?x220)) (* 11.0 |v5:6|)) (* (- 12.0) ?x2250))))
 (let (($x1145 (and (and (<= ?x1968 17.0) $x3292) (and (<= ?x77 ?x1477) (<= ?x909 ?x3044)))))
 (let (($x2551 (and (and (and $x1145 (and (and $x3182 $x1719) (and $x2795 $x2385))) $x2828) $x1116)))
 (let (($x2935 (<= (+ (+ (+ (* ?x961 ?x2397) ?x1204) (* ?x1415 ?x3138)) (* ?x1477 ?x721)) 5.0)))
 (let ((?x2387 (- 1.0)))
 (let ((?x2439 (* 0.0 ?x2250)))
 (let (($x557 (<= (+ (+ (+ ?x295 (* (- 10.0) |v4:7|)) (* 18.0 ?x2250)) ?x2439) ?x2387)))
 (let ((?x2572 (- 4.0)))
 (let ((?x776 (* 7.0 ?x220)))
 (let (($x3006 (<= (+ (+ (+ (* 0.0 |v5:6|) (* 9.0 ?x3147)) (* 13.0 ?x3071)) ?x776) ?x2572)))
 (let ((?x2727 (+ (+ (+ (* ?x1633 |v7:4|) (* ?x2387 ?x273)) (* (- 17.0) ?x220)) (* 12.0 ?x3071))))
 (let (($x617 (<= (+ (+ (+ (* (- 12.0) |v6:5|) ?x1211) ?x273) (* 4.0 ?x220)) 7.0)))
 (let (($x1589 (and (<= (+ (+ (+ ?x3011 (* ?x2387 |v6:5|)) (* ?x1415 |v5:6|)) ?x773) 19.0) $x617)))
 (let ((?x2159 (+ (+ (+ (* 5.0 ?x2397) (* 11.0 ?x220)) (* (- 11.0) ?x3071)) ?x773)))
 (let ((?x1709 (- 16.0)))
 (let ((?x977 (- 6.0)))
 (let ((?x3228 (* ?x977 ?x220)))
 (let (($x1064 (<= (+ (+ (+ (* (- 12.0) |v5:6|) (* ?x2387 ?x3138)) (* 8.0 ?x2250)) ?x3228) ?x1709)))
 (let (($x490 (and (and (or $x1064 (<= ?x2159 1.0)) $x1589) (and (and (<= ?x2727 ?x2387) $x3006) (and $x557 $x2935)))))
 (let ((?x1774 (- 11.0)))
 (let ((?x2734 (* ?x1774 ?x273)))
 (let (($x122 (<= (+ (+ (+ (* 13.0 ?x220) (* ?x3044 ?x2397)) (* ?x1642 |v4:7|)) ?x2734) 20.0)))
 (let ((?x1754 (* ?x2072 ?x721)))
 (let (($x571 (<= (+ (+ (+ (* 12.0 ?x721) (* ?x1709 ?x3138)) (* 18.0 ?x2250)) ?x1754) 18.0)))
 (let ((?x1473 (* 4.0 ?x3147)))
 (let (($x2717 (<= (+ (+ (+ (* ?x1774 ?x3147) (* (- 17.0) |v5:6|)) (* ?x1633 ?x2397)) ?x1473) 2.0)))
 (let (($x928 (<= (+ (+ (+ (* ?x2387 ?x220) (* ?x2387 ?x220)) (* 20.0 ?x273)) ?x2439) ?x1319)))
 (let ((?x2789 (+ (+ (+ (* 13.0 ?x273) (* 9.0 ?x2397)) (* 20.0 ?x220)) (* ?x961 |v7:4|))))
 (let ((?x496 (- 19.0)))
 (let ((?x3023 (+ (+ (+ (* 19.0 ?x3147) (* (- 8.0) ?x220)) (* 13.0 |v6:5|)) (* (- 9.0) ?x3138))))
 (let ((?x1687 (* ?x3044 |v7:4|)))
 (let (($x1117 (<= (+ (+ (+ (* (- 9.0) ?x2397) (* ?x1774 |v4:7|)) (* ?x1633 ?x3138)) ?x1687) 16.0)))
 (let ((?x2648 (- 8.0)))
 (let ((?x1631 (* ?x2648 |v5:6|)))
 (let (($x2098 (<= (+ (+ (+ (* ?x1709 |v6:5|) (* 17.0 |v6:5|)) (* ?x1477 ?x3147)) ?x1631) 7.0)))
 (let (($x832 (and (and (and $x2098 $x1117) (and (<= ?x3023 ?x496) (<= ?x2789 13.0))) (and (and $x928 $x2717) (and $x571 $x122)))))
 (let ((?x3142 (+ (+ (+ (* 12.0 ?x273) (* ?x1642 ?x220)) (* (- 12.0) |v5:6|)) (* ?x1319 ?x220))))
 (let (($x2852 (<= (+ (+ (+ (* ?x1415 |v5:6|) (* ?x2072 |v5:6|)) (* 6.0 |v4:7|)) ?x3228) ?x2387)))
 (let ((?x1934 (+ (+ (+ (* ?x1633 ?x2250) (* ?x1774 ?x220)) (* ?x3044 ?x220)) (* ?x1633 ?x721))))
 (let ((?x2749 (- 17.0)))
 (let (($x3466 (<= (+ (+ (+ ?x927 (* 18.0 ?x3071)) (* 13.0 ?x3138)) (* ?x1477 ?x3147)) ?x2749)))
 (let ((?x2520 (* 11.0 |v7:4|)))
 (let (($x471 (<= (+ (+ (+ (* ?x1477 ?x3138) (* ?x1633 ?x273)) (* ?x1642 |v4:7|)) ?x2520) ?x1774)))
 (let ((?x1526 (+ (+ (+ (* (- 12.0) |v4:7|) (* ?x3044 ?x273)) (* (- 10.0) ?x3138)) ?x1473)))
 (let ((?x1394 (* ?x496 |v7:4|)))
 (let ((?x817 (+ (+ (+ (* (- 10.0) ?x721) (* 20.0 ?x721)) (* 4.0 ?x220)) ?x1394)))
 (let (($x1872 (and (<= ?x817 ?x1709) (<= (+ (+ (+ ?x3138 (* ?x2749 ?x3147)) ?x776) (* ?x1642 ?x2397)) 8.0))))
 (let (($x2153 (and (and $x1872 (and (<= ?x1526 ?x1415) $x471)) (and (and $x3466 (<= ?x1934 5.0)) (and $x2852 (<= ?x3142 3.0))))))
 (let ((?x1749 (* 9.0 ?x3138)))
 (let ((?x2242 (+ (+ (+ (* 15.0 ?x3071) (* 5.0 ?x721)) (* (- 10.0) |v5:6|)) ?x1749)))
 (let (($x3314 (<= (+ (+ (+ (* (- 12.0) |v4:7|) ?x3069) (* 4.0 ?x2250)) (* ?x1415 ?x3138)) 3.0)))
 (let (($x2445 (<= (+ (+ (+ (* ?x3044 |v6:5|) (* 11.0 ?x2250)) ?x3011) (* ?x977 |v6:5|)) 19.0)))
 (let (($x2722 (<= (+ (+ (+ (* 13.0 ?x2250) (* 15.0 |v5:6|)) (* 6.0 |v7:4|)) ?x1631) 14.0)))
 (let ((?x2191 (+ (+ (+ (* 18.0 |v4:7|) (* 0.0 |v7:4|)) (* 8.0 |v4:7|)) (* ?x2749 ?x2397))))
 (let (($x2463 (<= (+ (+ (+ (* ?x1319 |v6:5|) (* 4.0 ?x273)) ?x2557) (* 17.0 ?x721)) 15.0)))
 (let ((?x1398 (* 9.0 |v4:7|)))
 (let (($x2350 (<= (+ (+ (+ (* 3.0 ?x273) (* (- 12.0) ?x721)) (* ?x2749 ?x3147)) ?x1398) 4.0)))
 (let ((?x1803 (* 4.0 ?x2250)))
 (let (($x2425 (<= (+ (+ (+ (* 12.0 ?x273) (* ?x2749 |v4:7|)) (* 15.0 ?x2250)) ?x1803) ?x1709)))
 (let (($x688 (and (and (and $x2425 $x2350) (and $x2463 (<= ?x2191 20.0))) (and (and $x2722 $x2445) (and $x3314 (<= ?x2242 ?x3044))))))
 (let (($x1161 (not (= |v0:11_st| (RMk1 val!5123)))))
 (let (($x1272 (not (= |v1:10_st| (RMk1 val!5122)))))
 (let (($x1346 (not (= |v2:9_st| (RMk1 val!5121)))))
 (let (($x2005 (not (= |v3:8_st| (RMk1 val!5120)))))
 (let (($x1367 (not (= |v8:3_st| (RMk1 val!5119)))))
 (let (($x3058 (not (= |v9:2_st| (RMk1 val!5118)))))
 (let (($x1294 (not (= |v10:1_st| (RMk1 val!5117)))))
 (let (($x2915 (not (= |v11:0_st| (RMk1 val!5116)))))
 (and $x2915 $x1294 $x3058 $x1367 $x2005 $x1346 $x1272 $x1161 (and (and (and $x688 $x2153) (and $x832 $x490)) $x2551))))))))))))))))))))))))))))))))))))))))))))))))))))))))))))))))))))))))))))))))))))))))))))))))))))))))))))))))))))))))))))))))))))))))))))))))))))
 )
 )
 )
 )
 )
 )
 )
 )
 )
 )
 )
 )
(check-sat)
